(declare-const delta_j Int)
(declare-const delta_param1 Int)
(declare-const delta_k Int)
(declare-const delta_param1@width Int)
(declare-const delta_i Int)
(declare-const delta_param2 Int)
(declare-const delta_param2@width Int)
(declare-const delta_param0@width Int)
(declare-const delta_param0@pos Int)
(declare-const delta_param0 Int)
(declare-const delta_param2@pos Int)
(declare-const delta_param1@pos Int)
(assert (exists
         ((uninterp?1 Int) (|i'?2| Int) (|k'?3| Int) (|param0'?4| Int)
            (|param1'?5| Int) (|param2'?6| Int) (|param0@pos'?7| Int)
            (|param1@pos'?8| Int) (|param2@pos'?9| Int)
            (|param0@width'?10| Int) (|param1@width'?11| Int)
            (|param2@width'?12| Int) (|S1,0?13| Real) (|j'?14| Int)
            (KSUM1?15 Int) (|K1,0?16| Int) (K?17 Int) (|j'?18| Int)
            (|param2@width'?19| Int) (|param1@width'?20| Int)
            (|param0@width'?21| Int) (|param2@pos'?22| Int)
            (|param1@pos'?23| Int) (|param0@pos'?24| Int) (|param2'?25| Int)
            (|param1'?26| Int) (|param0'?27| Int) (|k'?28| Int) (cxm?29 Int)
            (k?30 Int) (cym?31 Int) (j?32 Int) (cz?33 Int) (i?34 Int)
            (param2@width?35 Int) (param2@pos?36 Int) (param2?37 Int)
            (param1?38 Int) (param1@pos?39 Int) (param1@width?40 Int)
            (param0?41 Int) (param0@pos?42 Int) (param0@width?43 Int))
         (and (<= (- i?34) 0) (<= (+ (- cz?33) i?34) 0) (<= (- K?17) 0)
                (<= (- |K1,0?16|) 0) (= (+ |K1,0?16| (- K?17)) 0)
                (<= (+ KSUM1?15 (- K?17)) 0)
                (= (+ (- |S1,0?13|) |j'?14| (- |K1,0?16|)) 0)
                (= (+ (- KSUM1?15) |K1,0?16|) 0) (= |S1,0?13| 0)
                (or (and (= K?17 0)
                           (= (+ (- |param2@width'?12|) param2@width?35) 0)
                           (= (+ (- |param1@width'?11|) param1@width?40) 0)
                           (= (+ (- |param0@width'?10|) param0@width?43) 0)
                           (= (+ (- |param2@pos'?9|) param2@pos?36) 0)
                           (= (+ (- |param1@pos'?8|) param1@pos?39) 0)
                           (= (+ (- |param0@pos'?7|) param0@pos?42) 0)
                           (= (+ (- |param2'?6|) param2?37) 0)
                           (= (+ (- |param1'?5|) param1?38) 0)
                           (= (+ (- |param0'?4|) param0?41) 0)
                           (= (+ (- |k'?3|) k?30) 0) (= (- |j'?14|) 0))
                      (and (<= (+ (- K?17) 1) 0) (<= (- cym?31) 0)
                             (<= (+ (mod uninterp?1 20) -19) 0)
                             (<= (- (mod uninterp?1 20)) 0) (<= (- i?34) 0)
                             (<= (+ (- cym?31) |j'?14| -1) 0)
                             (<= (+ cxm?29 (- |k'?3|) 1) 0)
                             (<= (+ (mod (+ |j'?14| uninterp?1 -1) 20) -19) 0)
                             (<= (- (mod (+ |j'?14| uninterp?1 -1) 20)) 0)
                             (<= (- i?34) 0) (<= (- |k'?3|) 0)
                             (<= (+ (- |j'?14|) 1) 0)))
                (= (+ |j'?14| (- K?17)) 0) (<= (- K?17) 0) (<= (- |j'?14|) 0)
                (<= (- i?34) 0) (< (+ cym?31 (- |j'?14|)) 0)
                (= (+ |param2@width'?19| (- |param2@width'?12|)) 0)
                (= (+ |param1@width'?20| (- |param1@width'?11|)) 0)
                (= (+ |param0@width'?21| (- |param0@width'?10|)) 0)
                (= (+ |param2@pos'?22| (- |param2@pos'?9|)) 0)
                (= (+ |param1@pos'?23| (- |param1@pos'?8|)) 0)
                (= (+ |param0@pos'?24| (- |param0@pos'?7|)) 0)
                (= (+ |param2'?25| (- |param2'?6|)) 0)
                (= (+ |param1'?26| (- |param1'?5|)) 0)
                (= (+ |param0'?27| (- |param0'?4|)) 0)
                (= (+ |k'?28| (- |k'?3|)) 0) (= (+ |j'?18| (- |j'?14|)) 0)
                (= (+ |i'?2| (- i?34) -1) 0) (= delta_i (+ |i'?2| (- i?34)))
                (= delta_j (+ |j'?18| (- j?32)))
                (= delta_k (+ |k'?28| (- k?30)))
                (= delta_param0 (+ |param0'?27| (- param0?41)))
                (= delta_param1 (+ |param1'?26| (- param1?38)))
                (= delta_param2 (+ |param2'?25| (- param2?37)))
                (= delta_param0@pos (+ |param0@pos'?24| (- param0@pos?42)))
                (= delta_param1@pos (+ |param1@pos'?23| (- param1@pos?39)))
                (= delta_param2@pos (+ |param2@pos'?22| (- param2@pos?36)))
                (= delta_param0@width (+ |param0@width'?21|
                                           (- param0@width?43)))
                (= delta_param1@width (+ |param1@width'?20|
                                           (- param1@width?40)))
                (= delta_param2@width (+ |param2@width'?19|
                                           (- param2@width?35))))))
(check-sat)
